0 445 523 532 568 640 651 721 777 893
29 637 224 568 355 759 713 813 895 480
408 308 532 493 893 699 759 709 609 848
185 0 84 692 256 812 355 416 364 790
256 286 179 370 430 308 848 530 499 593
361 84 0 138 499 86 427 505 233 281
148 86 314 233 808 427 395 668 520 448
275 399 193 813 522 448 557 777 699 718
72 217 421 294 782 370 517 579 821 506
262 132 327 640 692 593 388 885 416 517
